(declare-const x0 Bool)
(declare-const y0 Real)
(declare-const y1 Real)
(declare-const y2 Real)
(declare-const y3 Real)
(declare-const y4 Real)
(declare-const y5 Real)
(declare-const y6 Real)
(declare-const y7 Real)
(declare-const y8 Real)
(declare-const y9 Real)
(declare-const y10 Real)
(declare-const y11 Real)
(declare-const y12 Real)
(declare-const y13 Real)
(declare-const y14 Real)
(declare-const y15 Real)
(declare-const y16 Real)
(declare-const y17 Real)
(declare-const y18 Real)
(declare-const y19 Real)
(declare-const y20 Real)
(declare-const y21 Real)
(declare-const y22 Real)
(declare-const y23 Real)
(declare-const y24 Real)
(declare-const y25 Real)
(declare-const y26 Real)
(assert (= (< 17 y22) (and true false)))
(assert (and x0 (= true false)))
(assert x0)
(assert (< 48 29))
(assert (< y13 16))
(assert (< (+ y18 y2) y24))
(assert (and (< y9 (+ 73 44)) true))
(assert (= 8 83))
(assert (< y0 (+ y22 y13)))
(check-sat)
